# Objective value = 8.6242200000000012e+03
I_0_0 2685
I_0_1 3.2130000000000009e+03
I_0_2 3.1399999999999995e+03
I_0_3 4.1640000000000018e+03
I_1_0 32
I_1_1 32
I_1_2 1.6000000000000046e+01
I_1_3 2.5583701823705951e-14
I_2_0 138
I_2_1 1.3800000000000003e+02
I_2_2 6.8999999999999986e+01
I_2_3 -2.8838043064638441e-14
I_3_0 78
I_3_1 0
I_3_2 78
I_3_3 0
I_4_0 196
I_4_1 98
I_4_2 1.9600000000000003e+02
I_4_3 9.8000000000000014e+01
I_5_0 138
I_5_1 138
I_5_2 6.8999999999999986e+01
I_5_3 -1.0214051826551440e-14
I_6_0 198
I_6_1 1.9799999999999997e+02
I_6_2 99
I_6_3 5.7509552675583109e-14
I_7_0 27
I_7_1 0
I_7_2 27
I_7_3 0
I_8_0 57
I_8_1 3.46077333457373e-16
I_8_2 5.6999999999999972e+01
I_8_3 -2.8976820942716586e-14
I_9_0 45
I_9_1 -5.0155192499179435e-15
I_9_2 45
I_9_3 0
I_10_0 152
I_10_1 152
I_10_2 76
I_10_3 -6.38378239159465e-16
I_11_0 88
I_11_1 88
I_11_2 44
I_11_3 0
I_12_0 42
I_12_1 0
I_12_2 42
I_12_3 0
I_13_0 32
I_13_1 0
I_13_2 32
I_13_3 0
I_14_0 34
I_14_1 34
I_14_2 1.6999999999999996e+01
I_14_3 -3.4763858458575214e-15
I_15_0 102
I_15_1 51
I_15_2 102
I_15_3 5.1000000000000021e+01
I_16_0 40
I_16_1 2.0000000000000014e+01
I_16_2 40
I_16_3 2.0000000000000004e+01
I_17_0 26
I_17_1 1.2999999999999998e+01
I_17_2 26
I_17_3 13
I_18_0 130
I_18_1 130
I_18_2 65
I_18_3 -4.8849813083506888e-15
I_19_0 41
I_19_1 41
I_19_2 41
I_19_3 0
I_20_0 65
I_20_1 -4.6117623608843417e-14
I_20_2 65
I_20_3 0
q_1_0_0 16
q_1_0_1 4.3667987343694120e-14
q_1_0_2 -9.6589403142388619e-15
q_1_1_0 0
q_1_1_1 0
q_1_1_2 0
q_1_2_0 0
q_1_2_1 -2.4980018054066022e-16
q_1_2_2 -1.3456250003152093e-14
q_2_0_0 69
q_2_0_1 -4.4797499043625066e-14
q_2_0_2 1.3322676295501878e-15
q_2_1_0 0
q_2_1_1 0
q_2_1_2 0
q_2_2_0 0
q_2_2_1 -2.2204460492503131e-16
q_2_2_2 0
q_3_0_0 0
q_3_0_1 156
q_3_0_2 0
q_3_1_0 0
q_3_1_1 0
q_3_1_2 0
q_3_2_0 0
q_3_2_1 0
q_3_2_2 0
q_4_0_0 0
q_4_0_1 2.0707833302632921e-14
q_4_0_2 0
q_4_1_0 0
q_4_1_1 0
q_4_1_2 0
q_4_2_0 5.8969756161486586e-16
q_4_2_1 196
q_4_2_2 0
q_5_0_0 69
q_5_0_1 -2.0428103653102880e-14
q_5_0_2 0
q_5_1_0 0
q_5_1_1 0
q_5_1_2 0
q_5_2_0 0
q_5_2_1 1.3322676295501878e-15
q_5_2_2 0
q_6_0_0 9.8999999999999986e+01
q_6_0_1 0
q_6_0_2 5.9729998724833422e-14
q_6_1_0 -6.8695049648681561e-16
q_6_1_1 0
q_6_1_2 2.4424906541753444e-15
q_6_2_0 0
q_6_2_1 0
q_6_2_2 0
q_7_0_0 0
q_7_0_1 54
q_7_0_2 -4.1633363423443370e-17
q_7_1_0 0
q_7_1_1 0
q_7_1_2 -4.9960036108132044e-16
q_7_2_0 0
q_7_2_1 0
q_7_2_2 4.85722573273506e-16
q_8_0_0 0
q_8_0_1 0
q_8_0_2 -4.2521541843143495e-14
q_8_1_0 0
q_8_1_1 1.1399999999999997e+02
q_8_1_2 0
q_8_2_0 3.46077333457373e-16
q_8_2_1 0
q_8_2_2 0
q_9_0_0 -5.0155192499179435e-15
q_9_0_1 9.0000000000000028e+01
q_9_0_2 -6.9388939039072284e-17
q_9_1_0 0
q_9_1_1 0
q_9_1_2 0
q_9_2_0 0
q_9_2_1 0
q_9_2_2 -2.7755575615628914e-17
q_10_0_0 76
q_10_0_1 0
q_10_0_2 -1.9428902930940239e-16
q_10_1_0 0
q_10_1_1 0
q_10_1_2 -4.4408920985006262e-16
q_10_2_0 0
q_10_2_1 0
q_10_2_2 0
q_11_0_0 44
q_11_0_1 0
q_11_0_2 0
q_11_1_0 -1.9845236565174673e-15
q_11_1_1 0
q_11_1_2 0
q_11_2_0 0
q_11_2_1 0
q_11_2_2 0
q_12_0_0 0
q_12_0_1 0
q_12_0_2 -4.4408920985006262e-16
q_12_1_0 0
q_12_1_1 0
q_12_1_2 0
q_12_2_0 0
q_12_2_1 84
q_12_2_2 4.4408920985006262e-16
q_13_0_0 0
q_13_0_1 0
q_13_0_2 0
q_13_1_0 0
q_13_1_1 64
q_13_1_2 0
q_13_2_0 0
q_13_2_1 0
q_13_2_2 0
q_14_0_0 1.7000000000000004e+01
q_14_0_1 -7.8548278992229825e-15
q_14_0_2 0
q_14_1_0 0
q_14_1_1 0
q_14_1_2 1.8266638202035779e-15
q_14_2_0 0
q_14_2_1 0
q_14_2_2 9.9226182825873366e-16
q_15_0_0 0
q_15_0_1 0
q_15_0_2 0
q_15_1_0 0
q_15_1_1 0
q_15_1_2 7.2164496600635175e-16
q_15_2_0 0
q_15_2_1 102
q_15_2_2 -8.8817841970012523e-16
q_16_0_0 2.0755966390062497e-14
q_16_0_1 3.9999999999999964e+01
q_16_0_2 0
q_16_1_0 -1.3877787807814457e-16
q_16_1_1 0
q_16_1_2 0
q_16_2_0 0
q_16_2_1 0
q_16_2_2 1.8041124150158794e-16
q_17_0_0 5.6378512969246231e-18
q_17_0_1 -2.0955459589799830e-15
q_17_0_2 0
q_17_1_0 0
q_17_1_1 0
q_17_1_2 7.2164496600635175e-16
q_17_2_0 0
q_17_2_1 2.5999999999999996e+01
q_17_2_2 -5.3013149425851225e-15
q_18_0_0 65
q_18_0_1 0
q_18_0_2 2.2204460492503131e-16
q_18_1_0 0
q_18_1_1 0
q_18_1_2 -5.10702591327572e-15
q_18_2_0 0
q_18_2_1 0
q_18_2_2 0
q_19_0_0 41
q_19_0_1 41
q_19_0_2 0
q_19_1_0 0
q_19_1_1 0
q_19_1_2 1.0269562977782698e-15
q_19_2_0 0
q_19_2_1 0
q_19_2_2 -1.0824674490095276e-15
q_20_0_0 -5.1924610444675778e-14
q_20_0_1 1.3000000000000003e+02
q_20_0_2 0
q_20_1_0 5.8069868358323617e-15
q_20_1_1 0
q_20_1_2 0
q_20_2_0 0
q_20_2_1 -2.2204460492503131e-16
q_20_2_2 0
y_0_0_0 1
y_0_0_1 1
y_0_0_2 1.6913553890773869e-17
y_0_1_0 0
y_0_1_1 1
y_0_1_2 6.5052130349130266e-18
y_0_2_0 0
y_0_2_1 1
y_0_2_2 -2.8731357570865868e-16
y_1_0_0 1
y_1_0_1 4.9439619065339e-17
y_1_0_2 -1.9949319973733282e-16
y_1_1_0 0
y_1_1_1 0
y_1_1_2 0
y_1_2_0 0
y_1_2_1 -7.8062556418956319e-18
y_1_2_2 -2.8731357570865868e-16
y_2_0_0 1
y_2_0_1 -2.1120258320017626e-16
y_2_0_2 0
y_2_1_0 0
y_2_1_1 0
y_2_1_2 0
y_2_2_0 0
y_2_2_1 -1.7347234759768071e-18
y_2_2_2 0
y_3_0_0 0
y_3_0_1 1
y_3_0_2 0
y_3_1_0 0
y_3_1_1 0
y_3_1_2 0
y_3_2_0 0
y_3_2_1 0
y_3_2_2 0
y_4_0_0 0
y_4_0_1 0
y_4_0_2 1.5308934675495323e-16
y_4_1_0 0
y_4_1_1 0
y_4_1_2 -5.2475385148298415e-17
y_4_2_0 6.0173220572945496e-18
y_4_2_1 1
y_4_2_2 -3.5941302017894472e-17
y_5_0_0 1
y_5_0_1 -1.4571677198205180e-16
y_5_0_2 0
y_5_1_0 0
y_5_1_1 0
y_5_1_2 0
y_5_2_0 0
y_5_2_1 0
y_5_2_2 0
y_6_0_0 9.9999999999999989e-01
y_6_0_1 0
y_6_0_2 0
y_6_1_0 -6.9388939039072284e-18
y_6_1_1 0
y_6_1_2 6.5052130349130266e-18
y_6_2_0 0
y_6_2_1 0
y_6_2_2 0
y_7_0_0 0
y_7_0_1 1
y_7_0_2 -6.5052130349130266e-19
y_7_1_0 0
y_7_1_1 0
y_7_1_2 -6.5052130349130266e-18
y_7_2_0 0
y_7_2_1 0
y_7_2_2 9.3241386833753381e-18
y_8_0_0 0
y_8_0_1 0
y_8_0_2 -3.7600131341797294e-16
y_8_1_0 0
y_8_1_1 9.9999999999999956e-01
y_8_1_2 0
y_8_2_0 6.0715321659188248e-18
y_8_2_1 0
y_8_2_2 0
y_9_0_0 -1.1145598333150986e-16
y_9_0_1 1
y_9_0_2 2.1684043449710089e-19
y_9_1_0 0
y_9_1_1 0
y_9_1_2 0
y_9_2_0 0
y_9_2_1 0
y_9_2_2 0
y_10_0_0 1
y_10_0_1 0
y_10_0_2 -2.8189256484623115e-18
y_10_1_0 0
y_10_1_1 0
y_10_1_2 0
y_10_2_0 0
y_10_2_1 0
y_10_2_2 -5.2041704279304213e-18
y_11_0_0 1
y_11_0_1 0
y_11_0_2 0
y_11_1_0 -4.5102810375396984e-17
y_11_1_1 0
y_11_1_2 0
y_11_2_0 0
y_11_2_1 0
y_11_2_2 0
y_12_0_0 0
y_12_0_1 0
y_12_0_2 6.9388939039072284e-18
y_12_1_0 0
y_12_1_1 0
y_12_1_2 0
y_12_2_0 0
y_12_2_1 1
y_12_2_2 -6.9388939039072284e-18
y_13_0_0 0
y_13_0_1 0
y_13_0_2 0
y_13_1_0 0
y_13_1_1 1
y_13_1_2 0
y_13_2_0 0
y_13_2_1 0
y_13_2_2 0
y_14_0_0 1.0000000000000002e+00
y_14_0_1 -2.2074356231804870e-16
y_14_0_2 0
y_14_1_0 0
y_14_1_1 0
y_14_1_2 3.8434967014611132e-17
y_14_2_0 0
y_14_2_1 0
y_14_2_2 0
y_15_0_0 0
y_15_0_1 0
y_15_0_2 -3.1225022567582528e-17
y_15_1_0 0
y_15_1_1 0
y_15_1_2 4.5102810375396984e-17
y_15_2_0 0
y_15_2_1 1
y_15_2_2 -6.9388939039072284e-18
y_16_0_0 1.0377983195031248e-15
y_16_0_1 9.9999999999999878e-01
y_16_0_2 0
y_16_1_0 -6.9388939039072284e-18
y_16_1_1 0
y_16_1_2 0
y_16_2_0 0
y_16_2_1 0
y_16_2_2 3.0357660829594124e-18
y_17_0_0 4.3368086899420177e-19
y_17_0_1 0
y_17_0_2 0
y_17_1_0 0
y_17_1_1 0
y_17_1_2 1.8214596497756474e-17
y_17_2_0 0
y_17_2_1 1
y_17_2_2 -1.4484941024406339e-16
y_18_0_0 1
y_18_0_1 0
y_18_0_2 0
y_18_1_0 0
y_18_1_1 0
y_18_1_2 0
y_18_2_0 0
y_18_2_1 0
y_18_2_2 0
y_19_0_0 1
y_19_0_1 1
y_19_0_2 0
y_19_1_0 0
y_19_1_1 0
y_19_1_2 1.0408340855860843e-17
y_19_2_0 0
y_19_2_1 0
y_19_2_2 -1.0408340855860843e-17
y_20_0_0 -7.9884016068731967e-16
y_20_0_1 1
y_20_0_2 0
y_20_1_0 8.9338259012805565e-17
y_20_1_1 0
y_20_1_2 0
y_20_2_0 0
y_20_2_1 -1.7347234759768071e-18
y_20_2_2 0
x_0_1_0_0 9.9999999999999378e-01
x_0_1_0_1 9.80118763926896e-17
x_0_1_0_2 -3.9898639947466563e-16
x_0_1_1_0 0
x_0_1_1_1 0
x_0_1_1_2 2.8189256484623115e-17
x_0_1_2_0 0
x_0_1_2_1 -1.5612511283791264e-17
x_0_1_2_2 -5.7462715141731735e-16
x_0_2_0_0 -5.3238663477728210e-15
x_0_2_0_1 -1.5612511283791264e-17
x_0_2_0_2 0
x_0_2_1_0 0
x_0_2_1_1 0
x_0_2_1_2 0
x_0_2_2_0 0
x_0_2_2_1 0
x_0_2_2_2 0
x_0_3_0_0 0
x_0_3_0_1 0
x_0_3_0_2 0
x_0_3_1_0 0
x_0_3_1_1 0
x_0_3_1_2 0
x_0_3_2_0 0
x_0_3_2_1 0
x_0_3_2_2 0
x_0_4_0_0 4.3368086899420177e-19
x_0_4_0_1 0
x_0_4_0_2 3.1532375321154773e-16
x_0_4_1_0 0
x_0_4_1_1 0
x_0_4_1_2 6.7545795345846926e-17
x_0_4_2_0 0
x_0_4_2_1 1
x_0_4_2_2 0
x_0_5_0_0 0
x_0_5_0_1 -2.4199392489876459e-16
x_0_5_0_2 0
x_0_5_1_0 0
x_0_5_1_1 0
x_0_5_1_2 0
x_0_5_2_0 0
x_0_5_2_1 0
x_0_5_2_2 0
x_0_6_0_0 0
x_0_6_0_1 0
x_0_6_0_2 0
x_0_6_1_0 0
x_0_6_1_1 0
x_0_6_1_2 0
x_0_6_2_0 0
x_0_6_2_1 0
x_0_6_2_2 0
x_0_7_0_0 0
x_0_7_0_1 0
x_0_7_0_2 0
x_0_7_1_0 0
x_0_7_1_1 0
x_0_7_1_2 0
x_0_7_2_0 0
x_0_7_2_1 0
x_0_7_2_2 0
x_0_8_0_0 0
x_0_8_0_1 0
x_0_8_0_2 0
x_0_8_1_0 0
x_0_8_1_1 9.9999999999999956e-01
x_0_8_1_2 0
x_0_8_2_0 0
x_0_8_2_1 0
x_0_8_2_2 0
x_0_9_0_0 0
x_0_9_0_1 1.0000000000000004e+00
x_0_9_0_2 0
x_0_9_1_0 0
x_0_9_1_1 0
x_0_9_1_2 0
x_0_9_2_0 0
x_0_9_2_1 0
x_0_9_2_2 0
x_0_10_0_0 0
x_0_10_0_1 0
x_0_10_0_2 0
x_0_10_1_0 0
x_0_10_1_1 0
x_0_10_1_2 0
x_0_10_2_0 0
x_0_10_2_1 0
x_0_10_2_2 0
x_0_11_0_0 0
x_0_11_0_1 0
x_0_11_0_2 0
x_0_11_1_0 0
x_0_11_1_1 0
x_0_11_1_2 0
x_0_11_2_0 0
x_0_11_2_1 0
x_0_11_2_2 0
x_0_12_0_0 0
x_0_12_0_1 0
x_0_12_0_2 0
x_0_12_1_0 0
x_0_12_1_1 0
x_0_12_1_2 0
x_0_12_2_0 0
x_0_12_2_1 0
x_0_12_2_2 0
x_0_13_0_0 0
x_0_13_0_1 0
x_0_13_0_2 0
x_0_13_1_0 0
x_0_13_1_1 1.0000000000000002e+00
x_0_13_1_2 0
x_0_13_2_0 0
x_0_13_2_1 0
x_0_13_2_2 0
x_0_14_0_0 1.0000000000000113e+00
x_0_14_0_1 -2.2291196666301971e-16
x_0_14_0_2 0
x_0_14_1_0 0
x_0_14_1_1 0
x_0_14_1_2 7.6869934029222264e-17
x_0_14_2_0 0
x_0_14_2_1 0
x_0_14_2_2 0
x_0_15_0_0 0
x_0_15_0_1 0
x_0_15_0_2 3.7947076036992655e-16
x_0_15_1_0 0
x_0_15_1_1 0
x_0_15_1_2 0
x_0_15_2_0 0
x_0_15_2_1 0
x_0_15_2_2 0
x_0_16_0_0 0
x_0_16_0_1 0
x_0_16_0_2 0
x_0_16_1_0 0
x_0_16_1_1 0
x_0_16_1_2 0
x_0_16_2_0 0
x_0_16_2_1 0
x_0_16_2_2 0
x_0_17_0_0 0
x_0_17_0_1 0
x_0_17_0_2 -2.1987620058006030e-16
x_0_17_1_0 0
x_0_17_1_1 0
x_0_17_1_2 0
x_0_17_2_0 0
x_0_17_2_1 1
x_0_17_2_2 0
x_0_18_0_0 0
x_0_18_0_1 0
x_0_18_0_2 0
x_0_18_1_0 0
x_0_18_1_1 0
x_0_18_1_2 0
x_0_18_2_0 0
x_0_18_2_1 0
x_0_18_2_2 0
x_0_19_0_0 0
x_0_19_0_1 0
x_0_19_0_2 0
x_0_19_1_0 0
x_0_19_1_1 0
x_0_19_1_2 0
x_0_19_2_0 0
x_0_19_2_1 0
x_0_19_2_2 0
x_0_20_0_0 0
x_0_20_0_1 1
x_0_20_0_2 0
x_0_20_1_0 0
x_0_20_1_1 0
x_0_20_1_2 2.9056618222611519e-17
x_0_20_2_0 0
x_0_20_2_1 0
x_0_20_2_2 0
x_1_2_0_0 1.0000000000000064e+00
x_1_2_0_1 0
x_1_2_0_2 0
x_1_2_1_0 0
x_1_2_1_1 0
x_1_2_1_2 0
x_1_2_2_0 0
x_1_2_2_1 0
x_1_2_2_2 0
x_1_3_0_0 0
x_1_3_0_1 0
x_1_3_0_2 0
x_1_3_1_0 0
x_1_3_1_1 0
x_1_3_1_2 0
x_1_3_2_0 0
x_1_3_2_1 0
x_1_3_2_2 0
x_1_4_0_0 0
x_1_4_0_1 0
x_1_4_0_2 0
x_1_4_1_0 0
x_1_4_1_1 0
x_1_4_1_2 0
x_1_4_2_0 0
x_1_4_2_1 0
x_1_4_2_2 0
x_1_5_0_0 0
x_1_5_0_1 0
x_1_5_0_2 0
x_1_5_1_0 0
x_1_5_1_1 0
x_1_5_1_2 0
x_1_5_2_0 0
x_1_5_2_1 0
x_1_5_2_2 0
x_1_6_0_0 0
x_1_6_0_1 0
x_1_6_0_2 0
x_1_6_1_0 0
x_1_6_1_1 0
x_1_6_1_2 0
x_1_6_2_0 0
x_1_6_2_1 0
x_1_6_2_2 0
x_1_7_0_0 0
x_1_7_0_1 0
x_1_7_0_2 0
x_1_7_1_0 0
x_1_7_1_1 0
x_1_7_1_2 0
x_1_7_2_0 0
x_1_7_2_1 0
x_1_7_2_2 0
x_1_8_0_0 0
x_1_8_0_1 0
x_1_8_0_2 0
x_1_8_1_0 0
x_1_8_1_1 0
x_1_8_1_2 0
x_1_8_2_0 0
x_1_8_2_1 0
x_1_8_2_2 0
x_1_9_0_0 0
x_1_9_0_1 0
x_1_9_0_2 0
x_1_9_1_0 0
x_1_9_1_1 0
x_1_9_1_2 0
x_1_9_2_0 0
x_1_9_2_1 0
x_1_9_2_2 0
x_1_10_0_0 8.6736173798840355e-18
x_1_10_0_1 0
x_1_10_0_2 0
x_1_10_1_0 0
x_1_10_1_1 0
x_1_10_1_2 0
x_1_10_2_0 0
x_1_10_2_1 0
x_1_10_2_2 0
x_1_11_0_0 0
x_1_11_0_1 0
x_1_11_0_2 0
x_1_11_1_0 0
x_1_11_1_1 0
x_1_11_1_2 0
x_1_11_2_0 0
x_1_11_2_1 0
x_1_11_2_2 0
x_1_12_0_0 0
x_1_12_0_1 0
x_1_12_0_2 0
x_1_12_1_0 0
x_1_12_1_1 0
x_1_12_1_2 0
x_1_12_2_0 0
x_1_12_2_1 0
x_1_12_2_2 0
x_1_13_0_0 0
x_1_13_0_1 0
x_1_13_0_2 0
x_1_13_1_0 0
x_1_13_1_1 0
x_1_13_1_2 0
x_1_13_2_0 0
x_1_13_2_1 0
x_1_13_2_2 0
x_1_14_0_0 0
x_1_14_0_1 0
x_1_14_0_2 0
x_1_14_1_0 0
x_1_14_1_1 0
x_1_14_1_2 0
x_1_14_2_0 0
x_1_14_2_1 0
x_1_14_2_2 0
x_1_15_0_0 0
x_1_15_0_1 0
x_1_15_0_2 0
x_1_15_1_0 0
x_1_15_1_1 0
x_1_15_1_2 0
x_1_15_2_0 0
x_1_15_2_1 0
x_1_15_2_2 0
x_1_16_0_0 0
x_1_16_0_1 0
x_1_16_0_2 0
x_1_16_1_0 0
x_1_16_1_1 0
x_1_16_1_2 0
x_1_16_2_0 0
x_1_16_2_1 0
x_1_16_2_2 0
x_1_17_0_0 0
x_1_17_0_1 0
x_1_17_0_2 0
x_1_17_1_0 0
x_1_17_1_1 0
x_1_17_1_2 0
x_1_17_2_0 0
x_1_17_2_1 0
x_1_17_2_2 0
x_1_18_0_0 0
x_1_18_0_1 0
x_1_18_0_2 0
x_1_18_1_0 0
x_1_18_1_1 0
x_1_18_1_2 0
x_1_18_2_0 0
x_1_18_2_1 0
x_1_18_2_2 0
x_1_19_0_0 0
x_1_19_0_1 0
x_1_19_0_2 0
x_1_19_1_0 0
x_1_19_1_1 0
x_1_19_1_2 0
x_1_19_2_0 0
x_1_19_2_1 0
x_1_19_2_2 0
x_1_20_0_0 0
x_1_20_0_1 0
x_1_20_0_2 0
x_1_20_1_0 0
x_1_20_1_1 0
x_1_20_1_2 -2.8189256484623115e-17
x_1_20_2_0 0
x_1_20_2_1 0
x_1_20_2_2 0
x_2_3_0_0 0
x_2_3_0_1 -2.1206994493816467e-16
x_2_3_0_2 0
x_2_3_1_0 0
x_2_3_1_1 0
x_2_3_1_2 0
x_2_3_2_0 0
x_2_3_2_1 0
x_2_3_2_2 0
x_2_4_0_0 0
x_2_4_0_1 0
x_2_4_0_2 0
x_2_4_1_0 0
x_2_4_1_1 0
x_2_4_1_2 0
x_2_4_2_0 0
x_2_4_2_1 0
x_2_4_2_2 0
x_2_5_0_0 0
x_2_5_0_1 0
x_2_5_0_2 0
x_2_5_1_0 0
x_2_5_1_1 0
x_2_5_1_2 0
x_2_5_2_0 0
x_2_5_2_1 0
x_2_5_2_2 0
x_2_6_0_0 0
x_2_6_0_1 0
x_2_6_0_2 0
x_2_6_1_0 0
x_2_6_1_1 0
x_2_6_1_2 0
x_2_6_2_0 0
x_2_6_2_1 0
x_2_6_2_2 0
x_2_7_0_0 0
x_2_7_0_1 0
x_2_7_0_2 0
x_2_7_1_0 0
x_2_7_1_1 0
x_2_7_1_2 0
x_2_7_2_0 0
x_2_7_2_1 0
x_2_7_2_2 0
x_2_8_0_0 0
x_2_8_0_1 0
x_2_8_0_2 0
x_2_8_1_0 0
x_2_8_1_1 0
x_2_8_1_2 0
x_2_8_2_0 0
x_2_8_2_1 0
x_2_8_2_2 0
x_2_9_0_0 0
x_2_9_0_1 0
x_2_9_0_2 0
x_2_9_1_0 0
x_2_9_1_1 0
x_2_9_1_2 0
x_2_9_2_0 0
x_2_9_2_1 0
x_2_9_2_2 0
x_2_10_0_0 0
x_2_10_0_1 0
x_2_10_0_2 0
x_2_10_1_0 0
x_2_10_1_1 0
x_2_10_1_2 0
x_2_10_2_0 0
x_2_10_2_1 0
x_2_10_2_2 0
x_2_11_0_0 1
x_2_11_0_1 0
x_2_11_0_2 0
x_2_11_1_0 -9.3675067702747583e-17
x_2_11_1_1 0
x_2_11_1_2 -1.3010426069826053e-17
x_2_11_2_0 0
x_2_11_2_1 0
x_2_11_2_2 0
x_2_12_0_0 0
x_2_12_0_1 0
x_2_12_0_2 0
x_2_12_1_0 0
x_2_12_1_1 0
x_2_12_1_2 0
x_2_12_2_0 0
x_2_12_2_1 -8.6736173798840355e-18
x_2_12_2_2 0
x_2_13_0_0 0
x_2_13_0_1 0
x_2_13_0_2 0
x_2_13_1_0 0
x_2_13_1_1 0
x_2_13_1_2 0
x_2_13_2_0 0
x_2_13_2_1 0
x_2_13_2_2 0
x_2_14_0_0 0
x_2_14_0_1 0
x_2_14_0_2 0
x_2_14_1_0 0
x_2_14_1_1 0
x_2_14_1_2 0
x_2_14_2_0 0
x_2_14_2_1 0
x_2_14_2_2 0
x_2_15_0_0 0
x_2_15_0_1 0
x_2_15_0_2 0
x_2_15_1_0 0
x_2_15_1_1 0
x_2_15_1_2 0
x_2_15_2_0 0
x_2_15_2_1 0
x_2_15_2_2 0
x_2_16_0_0 0
x_2_16_0_1 0
x_2_16_0_2 0
x_2_16_1_0 0
x_2_16_1_1 0
x_2_16_1_2 0
x_2_16_2_0 0
x_2_16_2_1 0
x_2_16_2_2 0
x_2_17_0_0 0
x_2_17_0_1 0
x_2_17_0_2 0
x_2_17_1_0 0
x_2_17_1_1 0
x_2_17_1_2 1.3010426069826053e-17
x_2_17_2_0 0
x_2_17_2_1 0
x_2_17_2_2 0
x_2_18_0_0 0
x_2_18_0_1 0
x_2_18_0_2 0
x_2_18_1_0 0
x_2_18_1_1 0
x_2_18_1_2 0
x_2_18_2_0 0
x_2_18_2_1 0
x_2_18_2_2 0
x_2_19_0_0 0
x_2_19_0_1 0
x_2_19_0_2 0
x_2_19_1_0 0
x_2_19_1_1 0
x_2_19_1_2 0
x_2_19_2_0 0
x_2_19_2_1 0
x_2_19_2_2 0
x_2_20_0_0 -7.0082828429463007e-16
x_2_20_0_1 -1.9472271017839660e-16
x_2_20_0_2 0
x_2_20_1_0 7.8062556418956319e-17
x_2_20_1_1 0
x_2_20_1_2 0
x_2_20_2_0 0
x_2_20_2_1 -1.7347234759768071e-18
x_2_20_2_2 0
x_3_4_0_0 0
x_3_4_0_1 0
x_3_4_0_2 0
x_3_4_1_0 0
x_3_4_1_1 0
x_3_4_1_2 0
x_3_4_2_0 0
x_3_4_2_1 0
x_3_4_2_2 0
x_3_5_0_0 0
x_3_5_0_1 0
x_3_5_0_2 0
x_3_5_1_0 0
x_3_5_1_1 0
x_3_5_1_2 0
x_3_5_2_0 0
x_3_5_2_1 0
x_3_5_2_2 0
x_3_6_0_0 0
x_3_6_0_1 0
x_3_6_0_2 0
x_3_6_1_0 0
x_3_6_1_1 0
x_3_6_1_2 0
x_3_6_2_0 0
x_3_6_2_1 0
x_3_6_2_2 0
x_3_7_0_0 0
x_3_7_0_1 0
x_3_7_0_2 0
x_3_7_1_0 0
x_3_7_1_1 0
x_3_7_1_2 0
x_3_7_2_0 0
x_3_7_2_1 0
x_3_7_2_2 0
x_3_8_0_0 0
x_3_8_0_1 0
x_3_8_0_2 0
x_3_8_1_0 0
x_3_8_1_1 0
x_3_8_1_2 0
x_3_8_2_0 0
x_3_8_2_1 0
x_3_8_2_2 0
x_3_9_0_0 0
x_3_9_0_1 0
x_3_9_0_2 0
x_3_9_1_0 0
x_3_9_1_1 0
x_3_9_1_2 0
x_3_9_2_0 0
x_3_9_2_1 0
x_3_9_2_2 0
x_3_10_0_0 0
x_3_10_0_1 0
x_3_10_0_2 0
x_3_10_1_0 0
x_3_10_1_1 0
x_3_10_1_2 0
x_3_10_2_0 0
x_3_10_2_1 0
x_3_10_2_2 0
x_3_11_0_0 0
x_3_11_0_1 0
x_3_11_0_2 0
x_3_11_1_0 0
x_3_11_1_1 0
x_3_11_1_2 1.3010426069826053e-17
x_3_11_2_0 0
x_3_11_2_1 0
x_3_11_2_2 0
x_3_12_0_0 0
x_3_12_0_1 0
x_3_12_0_2 0
x_3_12_1_0 0
x_3_12_1_1 0
x_3_12_1_2 0
x_3_12_2_0 0
x_3_12_2_1 0
x_3_12_2_2 0
x_3_13_0_0 0
x_3_13_0_1 0
x_3_13_0_2 0
x_3_13_1_0 0
x_3_13_1_1 0
x_3_13_1_2 0
x_3_13_2_0 0
x_3_13_2_1 0
x_3_13_2_2 0
x_3_14_0_0 0
x_3_14_0_1 0
x_3_14_0_2 0
x_3_14_1_0 0
x_3_14_1_1 0
x_3_14_1_2 0
x_3_14_2_0 0
x_3_14_2_1 0
x_3_14_2_2 0
x_3_15_0_0 0
x_3_15_0_1 0
x_3_15_0_2 0
x_3_15_1_0 0
x_3_15_1_1 0
x_3_15_1_2 0
x_3_15_2_0 0
x_3_15_2_1 0
x_3_15_2_2 0
x_3_16_0_0 0
x_3_16_0_1 0
x_3_16_0_2 0
x_3_16_1_0 0
x_3_16_1_1 0
x_3_16_1_2 0
x_3_16_2_0 0
x_3_16_2_1 0
x_3_16_2_2 0
x_3_17_0_0 0
x_3_17_0_1 0
x_3_17_0_2 0
x_3_17_1_0 0
x_3_17_1_1 0
x_3_17_1_2 0
x_3_17_2_0 0
x_3_17_2_1 0
x_3_17_2_2 0
x_3_18_0_0 0
x_3_18_0_1 0
x_3_18_0_2 0
x_3_18_1_0 0
x_3_18_1_1 0
x_3_18_1_2 -1.3010426069826053e-17
x_3_18_2_0 0
x_3_18_2_1 0
x_3_18_2_2 0
x_3_19_0_0 0
x_3_19_0_1 1
x_3_19_0_2 0
x_3_19_1_0 0
x_3_19_1_1 0
x_3_19_1_2 0
x_3_19_2_0 0
x_3_19_2_1 0
x_3_19_2_2 0
x_3_20_0_0 0
x_3_20_0_1 1.0000000000000002e+00
x_3_20_0_2 0
x_3_20_1_0 0
x_3_20_1_1 0
x_3_20_1_2 0
x_3_20_2_0 0
x_3_20_2_1 0
x_3_20_2_2 0
x_4_5_0_0 0
x_4_5_0_1 0
x_4_5_0_2 0
x_4_5_1_0 0
x_4_5_1_1 0
x_4_5_1_2 0
x_4_5_2_0 0
x_4_5_2_1 0
x_4_5_2_2 0
x_4_6_0_0 0
x_4_6_0_1 0
x_4_6_0_2 0
x_4_6_1_0 0
x_4_6_1_1 0
x_4_6_1_2 0
x_4_6_2_0 0
x_4_6_2_1 0
x_4_6_2_2 0
x_4_7_0_0 0
x_4_7_0_1 0
x_4_7_0_2 0
x_4_7_1_0 0
x_4_7_1_1 0
x_4_7_1_2 0
x_4_7_2_0 0
x_4_7_2_1 0
x_4_7_2_2 0
x_4_8_0_0 0
x_4_8_0_1 0
x_4_8_0_2 -3.7600131341797294e-16
x_4_8_1_0 0
x_4_8_1_1 0
x_4_8_1_2 0
x_4_8_2_0 1.2143064331837650e-17
x_4_8_2_1 0
x_4_8_2_2 0
x_4_9_0_0 0
x_4_9_0_1 0
x_4_9_0_2 0
x_4_9_1_0 0
x_4_9_1_1 0
x_4_9_1_2 0
x_4_9_2_0 0
x_4_9_2_1 0
x_4_9_2_2 0
x_4_10_0_0 0
x_4_10_0_1 0
x_4_10_0_2 0
x_4_10_1_0 0
x_4_10_1_1 0
x_4_10_1_2 0
x_4_10_2_0 0
x_4_10_2_1 0
x_4_10_2_2 0
x_4_11_0_0 0
x_4_11_0_1 0
x_4_11_0_2 0
x_4_11_1_0 0
x_4_11_1_1 0
x_4_11_1_2 0
x_4_11_2_0 0
x_4_11_2_1 0
x_4_11_2_2 0
x_4_12_0_0 -4.3368086899420177e-19
x_4_12_0_1 0
x_4_12_0_2 0
x_4_12_1_0 0
x_4_12_1_1 0
x_4_12_1_2 0
x_4_12_2_0 0
x_4_12_2_1 0
x_4_12_2_2 0
x_4_13_0_0 0
x_4_13_0_1 0
x_4_13_0_2 0
x_4_13_1_0 0
x_4_13_1_1 0
x_4_13_1_2 0
x_4_13_2_0 0
x_4_13_2_1 0
x_4_13_2_2 0
x_4_14_0_0 0
x_4_14_0_1 0
x_4_14_0_2 0
x_4_14_1_0 0
x_4_14_1_1 0
x_4_14_1_2 0
x_4_14_2_0 0
x_4_14_2_1 0
x_4_14_2_2 0
x_4_15_0_0 0
x_4_15_0_1 0
x_4_15_0_2 -3.1225022567582528e-17
x_4_15_1_0 0
x_4_15_1_1 0
x_4_15_1_2 4.5102810375396984e-17
x_4_15_2_0 0
x_4_15_2_1 1
x_4_15_2_2 -3.5941302017894472e-17
x_4_16_0_0 0
x_4_16_0_1 0
x_4_16_0_2 0
x_4_16_1_0 0
x_4_16_1_1 0
x_4_16_1_2 0
x_4_16_2_0 0
x_4_16_2_1 0
x_4_16_2_2 0
x_4_17_0_0 0
x_4_17_0_1 0
x_4_17_0_2 0
x_4_17_1_0 0
x_4_17_1_1 0
x_4_17_1_2 -2.0383000842727483e-17
x_4_17_2_0 0
x_4_17_2_1 0
x_4_17_2_2 -3.5941302017894472e-17
x_4_18_0_0 0
x_4_18_0_1 0
x_4_18_0_2 0
x_4_18_1_0 0
x_4_18_1_1 0
x_4_18_1_2 0
x_4_18_2_0 0
x_4_18_2_1 0
x_4_18_2_2 0
x_4_19_0_0 0
x_4_19_0_1 0
x_4_19_0_2 0
x_4_19_1_0 0
x_4_19_1_1 0
x_4_19_1_2 0
x_4_19_2_0 0
x_4_19_2_1 0
x_4_19_2_2 0
x_4_20_0_0 0
x_4_20_0_1 0
x_4_20_0_2 0
x_4_20_1_0 0
x_4_20_1_1 0
x_4_20_1_2 0
x_4_20_2_0 0
x_4_20_2_1 0
x_4_20_2_2 0
x_5_6_0_0 9.9999999999999867e-01
x_5_6_0_1 0
x_5_6_0_2 0
x_5_6_1_0 0
x_5_6_1_1 0
x_5_6_1_2 0
x_5_6_2_0 0
x_5_6_2_1 0
x_5_6_2_2 0
x_5_7_0_0 0
x_5_7_0_1 0
x_5_7_0_2 0
x_5_7_1_0 0
x_5_7_1_1 0
x_5_7_1_2 0
x_5_7_2_0 0
x_5_7_2_1 0
x_5_7_2_2 0
x_5_8_0_0 0
x_5_8_0_1 0
x_5_8_0_2 0
x_5_8_1_0 0
x_5_8_1_1 0
x_5_8_1_2 0
x_5_8_2_0 0
x_5_8_2_1 0
x_5_8_2_2 0
x_5_9_0_0 -2.2291196666301971e-16
x_5_9_0_1 -1.4571677198205180e-16
x_5_9_0_2 0
x_5_9_1_0 0
x_5_9_1_1 0
x_5_9_1_2 0
x_5_9_2_0 0
x_5_9_2_1 0
x_5_9_2_2 0
x_5_10_0_0 -9.9443023260370467e-16
x_5_10_0_1 0
x_5_10_0_2 0
x_5_10_1_0 0
x_5_10_1_1 0
x_5_10_1_2 0
x_5_10_2_0 0
x_5_10_2_1 0
x_5_10_2_2 0
x_5_11_0_0 0
x_5_11_0_1 0
x_5_11_0_2 0
x_5_11_1_0 0
x_5_11_1_1 0
x_5_11_1_2 0
x_5_11_2_0 0
x_5_11_2_1 0
x_5_11_2_2 0
x_5_12_0_0 0
x_5_12_0_1 0
x_5_12_0_2 0
x_5_12_1_0 0
x_5_12_1_1 0
x_5_12_1_2 0
x_5_12_2_0 0
x_5_12_2_1 0
x_5_12_2_2 0
x_5_13_0_0 0
x_5_13_0_1 0
x_5_13_0_2 0
x_5_13_1_0 0
x_5_13_1_1 0
x_5_13_1_2 0
x_5_13_2_0 0
x_5_13_2_1 0
x_5_13_2_2 0
x_5_14_0_0 1.0000000000000013e+00
x_5_14_0_1 0
x_5_14_0_2 0
x_5_14_1_0 0
x_5_14_1_1 0
x_5_14_1_2 0
x_5_14_2_0 0
x_5_14_2_1 0
x_5_14_2_2 0
x_5_15_0_0 0
x_5_15_0_1 0
x_5_15_0_2 0
x_5_15_1_0 0
x_5_15_1_1 0
x_5_15_1_2 0
x_5_15_2_0 0
x_5_15_2_1 0
x_5_15_2_2 0
x_5_16_0_0 0
x_5_16_0_1 0
x_5_16_0_2 0
x_5_16_1_0 0
x_5_16_1_1 0
x_5_16_1_2 0
x_5_16_2_0 0
x_5_16_2_1 0
x_5_16_2_2 0
x_5_17_0_0 0
x_5_17_0_1 0
x_5_17_0_2 0
x_5_17_1_0 0
x_5_17_1_1 0
x_5_17_1_2 0
x_5_17_2_0 0
x_5_17_2_1 0
x_5_17_2_2 0
x_5_18_0_0 0
x_5_18_0_1 0
x_5_18_0_2 0
x_5_18_1_0 0
x_5_18_1_1 0
x_5_18_1_2 0
x_5_18_2_0 0
x_5_18_2_1 0
x_5_18_2_2 0
x_5_19_0_0 0
x_5_19_0_1 0
x_5_19_0_2 0
x_5_19_1_0 0
x_5_19_1_1 0
x_5_19_1_2 0
x_5_19_2_0 0
x_5_19_2_1 0
x_5_19_2_2 0
x_5_20_0_0 -9.5756735873919752e-16
x_5_20_0_1 -1.6913553890773869e-17
x_5_20_0_2 0
x_5_20_1_0 0
x_5_20_1_1 0
x_5_20_1_2 0
x_5_20_2_0 0
x_5_20_2_1 0
x_5_20_2_2 0
x_6_7_0_0 0
x_6_7_0_1 0
x_6_7_0_2 -6.5052130349130266e-19
x_6_7_1_0 0
x_6_7_1_1 0
x_6_7_1_2 0
x_6_7_2_0 0
x_6_7_2_1 0
x_6_7_2_2 1.8648277366750676e-17
x_6_8_0_0 0
x_6_8_0_1 0
x_6_8_0_2 0
x_6_8_1_0 0
x_6_8_1_1 0
x_6_8_1_2 0
x_6_8_2_0 0
x_6_8_2_1 0
x_6_8_2_2 0
x_6_9_0_0 0
x_6_9_0_1 0
x_6_9_0_2 -2.6020852139652106e-18
x_6_9_1_0 0
x_6_9_1_1 0
x_6_9_1_2 -7.37257477290143e-18
x_6_9_2_0 0
x_6_9_2_1 0
x_6_9_2_2 0
x_6_10_0_0 1
x_6_10_0_1 0
x_6_10_0_2 -5.6378512969246231e-18
x_6_10_1_0 0
x_6_10_1_1 0
x_6_10_1_2 6.5052130349130266e-18
x_6_10_2_0 0
x_6_10_2_1 0
x_6_10_2_2 0
x_6_11_0_0 0
x_6_11_0_1 0
x_6_11_0_2 0
x_6_11_1_0 0
x_6_11_1_1 0
x_6_11_1_2 0
x_6_11_2_0 0
x_6_11_2_1 0
x_6_11_2_2 0
x_6_12_0_0 0
x_6_12_0_1 0
x_6_12_0_2 0
x_6_12_1_0 0
x_6_12_1_1 0
x_6_12_1_2 0
x_6_12_2_0 0
x_6_12_2_1 0
x_6_12_2_2 0
x_6_13_0_0 0
x_6_13_0_1 0
x_6_13_0_2 0
x_6_13_1_0 0
x_6_13_1_1 0
x_6_13_1_2 0
x_6_13_2_0 0
x_6_13_2_1 0
x_6_13_2_2 0
x_6_14_0_0 0
x_6_14_0_1 0
x_6_14_0_2 0
x_6_14_1_0 0
x_6_14_1_1 0
x_6_14_1_2 0
x_6_14_2_0 0
x_6_14_2_1 0
x_6_14_2_2 0
x_6_15_0_0 0
x_6_15_0_1 0
x_6_15_0_2 0
x_6_15_1_0 0
x_6_15_1_1 0
x_6_15_1_2 0
x_6_15_2_0 0
x_6_15_2_1 0
x_6_15_2_2 0
x_6_16_0_0 1.0377983195031248e-15
x_6_16_0_1 0
x_6_16_0_2 1.3010426069826053e-18
x_6_16_1_0 -1.3877787807814457e-17
x_6_16_1_1 0
x_6_16_1_2 6.5052130349130266e-18
x_6_16_2_0 0
x_6_16_2_1 0
x_6_16_2_2 6.0715321659188248e-18
x_6_17_0_0 0
x_6_17_0_1 0
x_6_17_0_2 0
x_6_17_1_0 0
x_6_17_1_1 0
x_6_17_1_2 0
x_6_17_2_0 0
x_6_17_2_1 0
x_6_17_2_2 0
x_6_18_0_0 0
x_6_18_0_1 0
x_6_18_0_2 0
x_6_18_1_0 0
x_6_18_1_1 0
x_6_18_1_2 0
x_6_18_2_0 0
x_6_18_2_1 0
x_6_18_2_2 0
x_6_19_0_0 0
x_6_19_0_1 0
x_6_19_0_2 0
x_6_19_1_0 0
x_6_19_1_1 0
x_6_19_1_2 6.5052130349130266e-18
x_6_19_2_0 0
x_6_19_2_1 0
x_6_19_2_2 -1.0408340855860843e-17
x_6_20_0_0 1.8778381627448937e-16
x_6_20_0_1 0
x_6_20_0_2 0
x_6_20_1_0 0
x_6_20_1_1 0
x_6_20_1_2 0
x_6_20_2_0 0
x_6_20_2_1 0
x_6_20_2_2 0
x_7_8_0_0 0
x_7_8_0_1 0
x_7_8_0_2 0
x_7_8_1_0 0
x_7_8_1_1 0
x_7_8_1_2 0
x_7_8_2_0 0
x_7_8_2_1 0
x_7_8_2_2 0
x_7_9_0_0 0
x_7_9_0_1 1.0347625534201654e-15
x_7_9_0_2 0
x_7_9_1_0 0
x_7_9_1_1 0
x_7_9_1_2 0
x_7_9_2_0 0
x_7_9_2_1 0
x_7_9_2_2 0
x_7_10_0_0 0
x_7_10_0_1 0
x_7_10_0_2 0
x_7_10_1_0 0
x_7_10_1_1 0
x_7_10_1_2 0
x_7_10_2_0 0
x_7_10_2_1 0
x_7_10_2_2 0
x_7_11_0_0 0
x_7_11_0_1 0
x_7_11_0_2 0
x_7_11_1_0 0
x_7_11_1_1 0
x_7_11_1_2 0
x_7_11_2_0 0
x_7_11_2_1 0
x_7_11_2_2 0
x_7_12_0_0 0
x_7_12_0_1 0
x_7_12_0_2 0
x_7_12_1_0 0
x_7_12_1_1 0
x_7_12_1_2 0
x_7_12_2_0 0
x_7_12_2_1 0
x_7_12_2_2 0
x_7_13_0_0 0
x_7_13_0_1 0
x_7_13_0_2 0
x_7_13_1_0 0
x_7_13_1_1 0
x_7_13_1_2 0
x_7_13_2_0 0
x_7_13_2_1 0
x_7_13_2_2 0
x_7_14_0_0 0
x_7_14_0_1 0
x_7_14_0_2 0
x_7_14_1_0 0
x_7_14_1_1 0
x_7_14_1_2 0
x_7_14_2_0 0
x_7_14_2_1 0
x_7_14_2_2 0
x_7_15_0_0 0
x_7_15_0_1 0
x_7_15_0_2 0
x_7_15_1_0 0
x_7_15_1_1 0
x_7_15_1_2 0
x_7_15_2_0 0
x_7_15_2_1 0
x_7_15_2_2 0
x_7_16_0_0 0
x_7_16_0_1 9.9999999999999878e-01
x_7_16_0_2 -1.3010426069826053e-18
x_7_16_1_0 0
x_7_16_1_1 0
x_7_16_1_2 -1.4745149545802860e-17
x_7_16_2_0 0
x_7_16_2_1 0
x_7_16_2_2 0
x_7_17_0_0 0
x_7_17_0_1 0
x_7_17_0_2 0
x_7_17_1_0 0
x_7_17_1_1 0
x_7_17_1_2 0
x_7_17_2_0 0
x_7_17_2_1 0
x_7_17_2_2 0
x_7_18_0_0 0
x_7_18_0_1 0
x_7_18_0_2 0
x_7_18_1_0 0
x_7_18_1_1 0
x_7_18_1_2 0
x_7_18_2_0 0
x_7_18_2_1 0
x_7_18_2_2 0
x_7_19_0_0 0
x_7_19_0_1 1
x_7_19_0_2 0
x_7_19_1_0 0
x_7_19_1_1 0
x_7_19_1_2 0
x_7_19_2_0 0
x_7_19_2_1 0
x_7_19_2_2 0
x_7_20_0_0 0
x_7_20_0_1 0
x_7_20_0_2 0
x_7_20_1_0 0
x_7_20_1_1 0
x_7_20_1_2 0
x_7_20_2_0 0
x_7_20_2_1 0
x_7_20_2_2 0
x_8_9_0_0 0
x_8_9_0_1 0
x_8_9_0_2 0
x_8_9_1_0 0
x_8_9_1_1 0
x_8_9_1_2 0
x_8_9_2_0 0
x_8_9_2_1 0
x_8_9_2_2 0
x_8_10_0_0 0
x_8_10_0_1 0
x_8_10_0_2 0
x_8_10_1_0 0
x_8_10_1_1 0
x_8_10_1_2 0
x_8_10_2_0 0
x_8_10_2_1 0
x_8_10_2_2 0
x_8_11_0_0 0
x_8_11_0_1 0
x_8_11_0_2 0
x_8_11_1_0 0
x_8_11_1_1 0
x_8_11_1_2 0
x_8_11_2_0 0
x_8_11_2_1 0
x_8_11_2_2 0
x_8_12_0_0 0
x_8_12_0_1 0
x_8_12_0_2 0
x_8_12_1_0 0
x_8_12_1_1 0
x_8_12_1_2 0
x_8_12_2_0 0
x_8_12_2_1 0
x_8_12_2_2 0
x_8_13_0_0 0
x_8_13_0_1 0
x_8_13_0_2 0
x_8_13_1_0 0
x_8_13_1_1 9.9999999999999956e-01
x_8_13_1_2 0
x_8_13_2_0 0
x_8_13_2_1 0
x_8_13_2_2 0
x_8_14_0_0 0
x_8_14_0_1 0
x_8_14_0_2 0
x_8_14_1_0 0
x_8_14_1_1 0
x_8_14_1_2 0
x_8_14_2_0 0
x_8_14_2_1 0
x_8_14_2_2 0
x_8_15_0_0 0
x_8_15_0_1 0
x_8_15_0_2 -3.7600131341797294e-16
x_8_15_1_0 0
x_8_15_1_1 0
x_8_15_1_2 0
x_8_15_2_0 0
x_8_15_2_1 0
x_8_15_2_2 0
x_8_16_0_0 0
x_8_16_0_1 0
x_8_16_0_2 0
x_8_16_1_0 0
x_8_16_1_1 0
x_8_16_1_2 0
x_8_16_2_0 0
x_8_16_2_1 0
x_8_16_2_2 0
x_8_17_0_0 0
x_8_17_0_1 0
x_8_17_0_2 0
x_8_17_1_0 0
x_8_17_1_1 0
x_8_17_1_2 0
x_8_17_2_0 0
x_8_17_2_1 0
x_8_17_2_2 0
x_8_18_0_0 0
x_8_18_0_1 0
x_8_18_0_2 0
x_8_18_1_0 0
x_8_18_1_1 0
x_8_18_1_2 0
x_8_18_2_0 0
x_8_18_2_1 0
x_8_18_2_2 0
x_8_19_0_0 0
x_8_19_0_1 0
x_8_19_0_2 0
x_8_19_1_0 0
x_8_19_1_1 0
x_8_19_1_2 0
x_8_19_2_0 0
x_8_19_2_1 0
x_8_19_2_2 0
x_8_20_0_0 0
x_8_20_0_1 0
x_8_20_0_2 0
x_8_20_1_0 0
x_8_20_1_1 0
x_8_20_1_2 0
x_8_20_2_0 0
x_8_20_2_1 0
x_8_20_2_2 0
x_9_10_0_0 0
x_9_10_0_1 0
x_9_10_0_2 0
x_9_10_1_0 0
x_9_10_1_1 0
x_9_10_1_2 0
x_9_10_2_0 0
x_9_10_2_1 0
x_9_10_2_2 0
x_9_11_0_0 0
x_9_11_0_1 0
x_9_11_0_2 0
x_9_11_1_0 0
x_9_11_1_1 0
x_9_11_1_2 0
x_9_11_2_0 0
x_9_11_2_1 0
x_9_11_2_2 0
x_9_12_0_0 0
x_9_12_0_1 0
x_9_12_0_2 0
x_9_12_1_0 0
x_9_12_1_1 0
x_9_12_1_2 0
x_9_12_2_0 0
x_9_12_2_1 0
x_9_12_2_2 0
x_9_13_0_0 0
x_9_13_0_1 0
x_9_13_0_2 0
x_9_13_1_0 0
x_9_13_1_1 0
x_9_13_1_2 0
x_9_13_2_0 0
x_9_13_2_1 0
x_9_13_2_2 0
x_9_14_0_0 0
x_9_14_0_1 -2.2117724318704290e-16
x_9_14_0_2 0
x_9_14_1_0 0
x_9_14_1_1 0
x_9_14_1_2 0
x_9_14_2_0 0
x_9_14_2_1 0
x_9_14_2_2 0
x_9_15_0_0 0
x_9_15_0_1 0
x_9_15_0_2 0
x_9_15_1_0 0
x_9_15_1_1 0
x_9_15_1_2 0
x_9_15_2_0 0
x_9_15_2_1 0
x_9_15_2_2 0
x_9_16_0_0 0
x_9_16_0_1 9.9999999999999878e-01
x_9_16_0_2 0
x_9_16_1_0 0
x_9_16_1_1 0
x_9_16_1_2 7.37257477290143e-18
x_9_16_2_0 0
x_9_16_2_1 0
x_9_16_2_2 0
x_9_17_0_0 0
x_9_17_0_1 0
x_9_17_0_2 0
x_9_17_1_0 0
x_9_17_1_1 0
x_9_17_1_2 0
x_9_17_2_0 0
x_9_17_2_1 0
x_9_17_2_2 0
x_9_18_0_0 0
x_9_18_0_1 0
x_9_18_0_2 0
x_9_18_1_0 0
x_9_18_1_1 0
x_9_18_1_2 0
x_9_18_2_0 0
x_9_18_2_1 0
x_9_18_2_2 0
x_9_19_0_0 0
x_9_19_0_1 0
x_9_19_0_2 0
x_9_19_1_0 0
x_9_19_1_1 0
x_9_19_1_2 0
x_9_19_2_0 0
x_9_19_2_1 0
x_9_19_2_2 0
x_9_20_0_0 0
x_9_20_0_1 0
x_9_20_0_2 0
x_9_20_1_0 0
x_9_20_1_1 0
x_9_20_1_2 0
x_9_20_2_0 0
x_9_20_2_1 0
x_9_20_2_2 0
x_10_11_0_0 0
x_10_11_0_1 0
x_10_11_0_2 0
x_10_11_1_0 0
x_10_11_1_1 0
x_10_11_1_2 0
x_10_11_2_0 0
x_10_11_2_1 0
x_10_11_2_2 0
x_10_12_0_0 0
x_10_12_0_1 0
x_10_12_0_2 0
x_10_12_1_0 0
x_10_12_1_1 0
x_10_12_1_2 0
x_10_12_2_0 0
x_10_12_2_1 0
x_10_12_2_2 0
x_10_13_0_0 0
x_10_13_0_1 0
x_10_13_0_2 0
x_10_13_1_0 0
x_10_13_1_1 0
x_10_13_1_2 0
x_10_13_2_0 0
x_10_13_2_1 0
x_10_13_2_2 0
x_10_14_0_0 0
x_10_14_0_1 0
x_10_14_0_2 0
x_10_14_1_0 0
x_10_14_1_1 0
x_10_14_1_2 0
x_10_14_2_0 0
x_10_14_2_1 0
x_10_14_2_2 0
x_10_15_0_0 0
x_10_15_0_1 0
x_10_15_0_2 0
x_10_15_1_0 0
x_10_15_1_1 0
x_10_15_1_2 0
x_10_15_2_0 0
x_10_15_2_1 0
x_10_15_2_2 0
x_10_16_0_0 1.0377983195031248e-15
x_10_16_0_1 0
x_10_16_0_2 0
x_10_16_1_0 0
x_10_16_1_1 0
x_10_16_1_2 0
x_10_16_2_0 0
x_10_16_2_1 0
x_10_16_2_2 0
x_10_17_0_0 0
x_10_17_0_1 0
x_10_17_0_2 0
x_10_17_1_0 0
x_10_17_1_1 0
x_10_17_1_2 0
x_10_17_2_0 0
x_10_17_2_1 0
x_10_17_2_2 0
x_10_18_0_0 -1.7347234759768071e-17
x_10_18_0_1 0
x_10_18_0_2 0
x_10_18_1_0 0
x_10_18_1_1 0
x_10_18_1_2 0
x_10_18_2_0 0
x_10_18_2_1 0
x_10_18_2_2 0
x_10_19_0_0 1
x_10_19_0_1 0
x_10_19_0_2 0
x_10_19_1_0 0
x_10_19_1_1 0
x_10_19_1_2 -6.5052130349130266e-18
x_10_19_2_0 0
x_10_19_2_1 0
x_10_19_2_2 -1.0408340855860843e-17
x_10_20_0_0 -5.2041704279304213e-17
x_10_20_0_1 0
x_10_20_0_2 0
x_10_20_1_0 0
x_10_20_1_1 0
x_10_20_1_2 0
x_10_20_2_0 0
x_10_20_2_1 0
x_10_20_2_2 0
x_11_12_0_0 0
x_11_12_0_1 0
x_11_12_0_2 0
x_11_12_1_0 0
x_11_12_1_1 0
x_11_12_1_2 0
x_11_12_2_0 0
x_11_12_2_1 0
x_11_12_2_2 0
x_11_13_0_0 0
x_11_13_0_1 0
x_11_13_0_2 0
x_11_13_1_0 0
x_11_13_1_1 0
x_11_13_1_2 0
x_11_13_2_0 0
x_11_13_2_1 0
x_11_13_2_2 0
x_11_14_0_0 0
x_11_14_0_1 0
x_11_14_0_2 0
x_11_14_1_0 0
x_11_14_1_1 0
x_11_14_1_2 0
x_11_14_2_0 0
x_11_14_2_1 0
x_11_14_2_2 0
x_11_15_0_0 0
x_11_15_0_1 0
x_11_15_0_2 0
x_11_15_1_0 0
x_11_15_1_1 0
x_11_15_1_2 0
x_11_15_2_0 0
x_11_15_2_1 0
x_11_15_2_2 0
x_11_16_0_0 0
x_11_16_0_1 0
x_11_16_0_2 0
x_11_16_1_0 0
x_11_16_1_1 0
x_11_16_1_2 0
x_11_16_2_0 0
x_11_16_2_1 0
x_11_16_2_2 0
x_11_17_0_0 0
x_11_17_0_1 0
x_11_17_0_2 0
x_11_17_1_0 0
x_11_17_1_1 0
x_11_17_1_2 0
x_11_17_2_0 0
x_11_17_2_1 0
x_11_17_2_2 0
x_11_18_0_0 1
x_11_18_0_1 0
x_11_18_0_2 0
x_11_18_1_0 0
x_11_18_1_1 0
x_11_18_1_2 0
x_11_18_2_0 0
x_11_18_2_1 0
x_11_18_2_2 0
x_11_19_0_0 0
x_11_19_0_1 0
x_11_19_0_2 0
x_11_19_1_0 0
x_11_19_1_1 0
x_11_19_1_2 0
x_11_19_2_0 0
x_11_19_2_1 0
x_11_19_2_2 0
x_11_20_0_0 -1.0451708942760263e-16
x_11_20_0_1 0
x_11_20_0_2 0
x_11_20_1_0 0
x_11_20_1_1 0
x_11_20_1_2 0
x_11_20_2_0 0
x_11_20_2_1 0
x_11_20_2_2 0
x_12_13_0_0 0
x_12_13_0_1 0
x_12_13_0_2 0
x_12_13_1_0 0
x_12_13_1_1 0
x_12_13_1_2 0
x_12_13_2_0 0
x_12_13_2_1 0
x_12_13_2_2 0
x_12_14_0_0 0
x_12_14_0_1 0
x_12_14_0_2 0
x_12_14_1_0 0
x_12_14_1_1 0
x_12_14_1_2 0
x_12_14_2_0 0
x_12_14_2_1 0
x_12_14_2_2 0
x_12_15_0_0 0
x_12_15_0_1 0
x_12_15_0_2 -3.1225022567582528e-17
x_12_15_1_0 0
x_12_15_1_1 0
x_12_15_1_2 0
x_12_15_2_0 0
x_12_15_2_1 1
x_12_15_2_2 1.3877787807814457e-16
x_12_16_0_0 0
x_12_16_0_1 0
x_12_16_0_2 0
x_12_16_1_0 0
x_12_16_1_1 0
x_12_16_1_2 0
x_12_16_2_0 0
x_12_16_2_1 0
x_12_16_2_2 0
x_12_17_0_0 8.6736173798840355e-19
x_12_17_0_1 0
x_12_17_0_2 2.1987620058006030e-16
x_12_17_1_0 0
x_12_17_1_1 0
x_12_17_1_2 0
x_12_17_2_0 0
x_12_17_2_1 9.9999999999999989e-01
x_12_17_2_2 -1.5265566588595902e-16
x_12_18_0_0 0
x_12_18_0_1 0
x_12_18_0_2 0
x_12_18_1_0 0
x_12_18_1_1 0
x_12_18_1_2 0
x_12_18_2_0 0
x_12_18_2_1 0
x_12_18_2_2 0
x_12_19_0_0 0
x_12_19_0_1 0
x_12_19_0_2 0
x_12_19_1_0 0
x_12_19_1_1 0
x_12_19_1_2 0
x_12_19_2_0 0
x_12_19_2_1 0
x_12_19_2_2 0
x_12_20_0_0 0
x_12_20_0_1 0
x_12_20_0_2 0
x_12_20_1_0 0
x_12_20_1_1 0
x_12_20_1_2 0
x_12_20_2_0 0
x_12_20_2_1 0
x_12_20_2_2 0
x_13_14_0_0 0
x_13_14_0_1 0
x_13_14_0_2 0
x_13_14_1_0 0
x_13_14_1_1 0
x_13_14_1_2 0
x_13_14_2_0 0
x_13_14_2_1 0
x_13_14_2_2 0
x_13_15_0_0 0
x_13_15_0_1 0
x_13_15_0_2 0
x_13_15_1_0 0
x_13_15_1_1 0
x_13_15_1_2 0
x_13_15_2_0 0
x_13_15_2_1 0
x_13_15_2_2 0
x_13_16_0_0 0
x_13_16_0_1 0
x_13_16_0_2 0
x_13_16_1_0 0
x_13_16_1_1 0
x_13_16_1_2 0
x_13_16_2_0 0
x_13_16_2_1 0
x_13_16_2_2 0
x_13_17_0_0 0
x_13_17_0_1 0
x_13_17_0_2 0
x_13_17_1_0 0
x_13_17_1_1 0
x_13_17_1_2 0
x_13_17_2_0 0
x_13_17_2_1 0
x_13_17_2_2 0
x_13_18_0_0 0
x_13_18_0_1 0
x_13_18_0_2 0
x_13_18_1_0 0
x_13_18_1_1 0
x_13_18_1_2 0
x_13_18_2_0 0
x_13_18_2_1 0
x_13_18_2_2 0
x_13_19_0_0 0
x_13_19_0_1 0
x_13_19_0_2 0
x_13_19_1_0 0
x_13_19_1_1 0
x_13_19_1_2 0
x_13_19_2_0 0
x_13_19_2_1 0
x_13_19_2_2 0
x_13_20_0_0 0
x_13_20_0_1 0
x_13_20_0_2 0
x_13_20_1_0 0
x_13_20_1_1 0
x_13_20_1_2 0
x_13_20_2_0 0
x_13_20_2_1 0
x_13_20_2_2 0
x_14_15_0_0 0
x_14_15_0_1 0
x_14_15_0_2 0
x_14_15_1_0 0
x_14_15_1_1 0
x_14_15_1_2 0
x_14_15_2_0 0
x_14_15_2_1 0
x_14_15_2_2 0
x_14_16_0_0 0
x_14_16_0_1 0
x_14_16_0_2 0
x_14_16_1_0 0
x_14_16_1_1 0
x_14_16_1_2 0
x_14_16_2_0 0
x_14_16_2_1 0
x_14_16_2_2 0
x_14_17_0_0 0
x_14_17_0_1 0
x_14_17_0_2 0
x_14_17_1_0 0
x_14_17_1_1 0
x_14_17_1_2 0
x_14_17_2_0 0
x_14_17_2_1 0
x_14_17_2_2 0
x_14_18_0_0 0
x_14_18_0_1 0
x_14_18_0_2 0
x_14_18_1_0 0
x_14_18_1_1 0
x_14_18_1_2 0
x_14_18_2_0 0
x_14_18_2_1 0
x_14_18_2_2 0
x_14_19_0_0 0
x_14_19_0_1 0
x_14_19_0_2 0
x_14_19_1_0 0
x_14_19_1_1 0
x_14_19_1_2 0
x_14_19_2_0 0
x_14_19_2_1 0
x_14_19_2_2 0
x_14_20_0_0 0
x_14_20_0_1 0
x_14_20_0_2 0
x_14_20_1_0 0
x_14_20_1_1 0
x_14_20_1_2 0
x_14_20_2_0 0
x_14_20_2_1 0
x_14_20_2_2 0
x_15_16_0_0 0
x_15_16_0_1 0
x_15_16_0_2 0
x_15_16_1_0 0
x_15_16_1_1 0
x_15_16_1_2 0
x_15_16_2_0 0
x_15_16_2_1 0
x_15_16_2_2 0
x_15_17_0_0 0
x_15_17_0_1 0
x_15_17_0_2 0
x_15_17_1_0 0
x_15_17_1_1 0
x_15_17_1_2 3.9031278209478160e-17
x_15_17_2_0 0
x_15_17_2_1 0
x_15_17_2_2 -1.1188966420050406e-16
x_15_18_0_0 0
x_15_18_0_1 0
x_15_18_0_2 0
x_15_18_1_0 0
x_15_18_1_1 0
x_15_18_1_2 0
x_15_18_2_0 0
x_15_18_2_1 0
x_15_18_2_2 0
x_15_19_0_0 0
x_15_19_0_1 0
x_15_19_0_2 0
x_15_19_1_0 0
x_15_19_1_1 0
x_15_19_1_2 0
x_15_19_2_0 0
x_15_19_2_1 0
x_15_19_2_2 0
x_15_20_0_0 0
x_15_20_0_1 0
x_15_20_0_2 0
x_15_20_1_0 0
x_15_20_1_1 0
x_15_20_1_2 0
x_15_20_2_0 0
x_15_20_2_1 0
x_15_20_2_2 0
x_16_17_0_0 0
x_16_17_0_1 0
x_16_17_0_2 0
x_16_17_1_0 0
x_16_17_1_1 0
x_16_17_1_2 0
x_16_17_2_0 0
x_16_17_2_1 0
x_16_17_2_2 0
x_16_18_0_0 0
x_16_18_0_1 0
x_16_18_0_2 0
x_16_18_1_0 0
x_16_18_1_1 0
x_16_18_1_2 0
x_16_18_2_0 0
x_16_18_2_1 0
x_16_18_2_2 0
x_16_19_0_0 0
x_16_19_0_1 0
x_16_19_0_2 0
x_16_19_1_0 0
x_16_19_1_1 0
x_16_19_1_2 0
x_16_19_2_0 0
x_16_19_2_1 0
x_16_19_2_2 0
x_16_20_0_0 0
x_16_20_0_1 0
x_16_20_0_2 0
x_16_20_1_0 0
x_16_20_1_1 0
x_16_20_1_2 0
x_16_20_2_0 0
x_16_20_2_1 0
x_16_20_2_2 0
x_17_18_0_0 0
x_17_18_0_1 0
x_17_18_0_2 0
x_17_18_1_0 0
x_17_18_1_1 0
x_17_18_1_2 0
x_17_18_2_0 0
x_17_18_2_1 0
x_17_18_2_2 0
x_17_19_0_0 0
x_17_19_0_1 0
x_17_19_0_2 0
x_17_19_1_0 0
x_17_19_1_1 0
x_17_19_1_2 0
x_17_19_2_0 0
x_17_19_2_1 0
x_17_19_2_2 0
x_17_20_0_0 0
x_17_20_0_1 0
x_17_20_0_2 0
x_17_20_1_0 0
x_17_20_1_1 0
x_17_20_1_2 0
x_17_20_2_0 0
x_17_20_2_1 0
x_17_20_2_2 0
x_18_19_0_0 1
x_18_19_0_1 0
x_18_19_0_2 0
x_18_19_1_0 0
x_18_19_1_1 0
x_18_19_1_2 1.3010426069826053e-17
x_18_19_2_0 0
x_18_19_2_1 0
x_18_19_2_2 0
x_18_20_0_0 0
x_18_20_0_1 0
x_18_20_0_2 0
x_18_20_1_0 0
x_18_20_1_1 0
x_18_20_1_2 0
x_18_20_2_0 0
x_18_20_2_1 0
x_18_20_2_2 0
x_19_20_0_0 0
x_19_20_0_1 0
x_19_20_0_2 0
x_19_20_1_0 0
x_19_20_1_1 0
x_19_20_1_2 0
x_19_20_2_0 0
x_19_20_2_1 0
x_19_20_2_2 0
